Version identifier: 22.1.0.0 | 2022-03-09 | 1a383f8ce
CPXPARAM_Read_DataCheck                          1
CPXPARAM_TimeLimit                               600
1 of 1 MIP starts provided solutions.
MIP start 'm1' defined initial solution with objective 83.0000.
Tried aggregator 3 times.
MIP Presolve eliminated 220340 rows and 14266 columns.
MIP Presolve modified 2001 coefficients.
Aggregator did 208490 substitutions.
Reduced MIP has 16845 rows, 212994 columns, and 443235 nonzeros.
Reduced MIP has 212944 binaries, 50 generals, 0 SOSs, and 0 indicators.
Presolve time = 3.30 sec. (3214.54 ticks)
Tried aggregator 1 time.
Detecting symmetries...
Reduced MIP has 16845 rows, 212994 columns, and 443235 nonzeros.
Reduced MIP has 212944 binaries, 50 generals, 0 SOSs, and 0 indicators.
Presolve time = 0.70 sec. (343.71 ticks)
Probing fixed 75 vars, tightened 0 bounds.
Probing changed sense of 20 constraints.
Probing time = 0.39 sec. (53.84 ticks)
Clique table members: 430254.
MIP emphasis: balance optimality and feasibility.
MIP search method: dynamic search.
Parallel mode: deterministic, using up to 8 threads.
Root relaxation solution time = 2.09 sec. (1408.23 ticks)

        Nodes                                         Cuts/
   Node  Left     Objective  IInf  Best Integer    Best Bound    ItCnt     Gap

*     0+    0                           83.0000        0.0000           100.00%
      0     0       50.3980 12527       83.0000       50.3980       29   39.28%
      0     0       82.0000  1311       83.0000     Fract: 32    31529    1.20%
      0     0       82.0000  1091       83.0000     Cuts: 123    84002    1.20%

Repeating presolve.
Tried aggregator 3 times.
MIP Presolve eliminated 3467 rows and 119287 columns.
MIP Presolve modified 9 coefficients.
Aggregator did 2715 substitutions.
Reduced MIP has 10663 rows, 90992 columns, and 191976 nonzeros.
Reduced MIP has 90992 binaries, 0 generals, 0 SOSs, and 0 indicators.
Presolve time = 0.47 sec. (401.21 ticks)
Tried aggregator 2 times.
Detecting symmetries...
Aggregator did 8 substitutions.
Reduced MIP has 10655 rows, 90984 columns, and 191968 nonzeros.
Reduced MIP has 90984 binaries, 0 generals, 0 SOSs, and 0 indicators.
Presolve time = 0.20 sec. (150.29 ticks)
Represolve time = 0.96 sec. (806.41 ticks)

        Nodes                                         Cuts/
   Node  Left     Objective  IInf  Best Integer    Best Bound    ItCnt     Gap

      0     1  -1.00000e+37     0       83.0000       82.0000    84002    1.20%

Root node processing (before b&c):
  Real time             =  286.75 sec. (147904.17 ticks)
Parallel b&c, 8 threads:
  Real time             =    0.00 sec. (0.00 ticks)
  Sync time (average)   =    0.00 sec.
  Wait time (average)   =    0.00 sec.
                          ------------
Total (root+branch&cut) =  286.75 sec. (147904.17 ticks)
